Optimize a model with 3608692 rows, 2118967 columns and 12834039 nonzeros
Model has 1560 quadratic objective terms
Coefficient statistics:
  Matrix range    [1e+00, 7e+02]
  Objective range [1e+02, 7e+02]
  Bounds range    [1e+00, 1e+05]
  RHS range       [1e+00, 8e+03]
Presolve removed 207981 rows and 165336 columns (presolve time = 5s) ...
Presolve removed 208723 rows and 165336 columns (presolve time = 14s) ...
Presolve removed 208723 rows and 197677 columns (presolve time = 15s) ...
Presolve removed 208723 rows and 197677 columns (presolve time = 20s) ...
Presolve removed 208723 rows and 197677 columns (presolve time = 25s) ...
Presolve removed 208723 rows and 197677 columns (presolve time = 30s) ...
Presolve removed 208723 rows and 197677 columns (presolve time = 35s) ...
Presolve removed 208723 rows and 197677 columns (presolve time = 40s) ...
Presolve removed 241806 rows and 230760 columns (presolve time = 46s) ...
Presolve removed 241806 rows and 230760 columns (presolve time = 50s) ...
Presolve removed 254036 rows and 230868 columns (presolve time = 55s) ...
Presolve removed 254036 rows and 230868 columns (presolve time = 60s) ...
Presolve removed 254036 rows and 230868 columns (presolve time = 65s) ...
Presolve removed 264132 rows and 230868 columns (presolve time = 70s) ...
Presolve removed 272370 rows and 230868 columns (presolve time = 75s) ...
Presolve removed 274732 rows and 230868 columns (presolve time = 80s) ...
Presolve removed 274732 rows and 230868 columns (presolve time = 85s) ...
Presolve removed 274732 rows and 230868 columns (presolve time = 90s) ...
Presolve removed 274732 rows and 230868 columns (presolve time = 95s) ...
Presolve removed 274732 rows and 230868 columns (presolve time = 100s) ...
Presolve removed 274732 rows and 230868 columns (presolve time = 105s) ...
Presolve removed 274732 rows and 230868 columns (presolve time = 110s) ...
Presolve removed 342810 rows and 243369 columns (presolve time = 115s) ...
Presolve removed 353157 rows and 253703 columns (presolve time = 123s) ...
Presolve removed 362977 rows and 290000 columns (presolve time = 125s) ...
Presolve removed 430710 rows and 306975 columns (presolve time = 135s) ...
Presolve removed 430710 rows and 306975 columns (presolve time = 149s) ...
Presolve removed 430710 rows and 306975 columns (presolve time = 150s) ...
Presolve removed 430710 rows and 306975 columns (presolve time = 155s) ...
Presolve removed 430710 rows and 306975 columns (presolve time = 160s) ...
Presolve removed 430710 rows and 306975 columns (presolve time = 165s) ...
Presolve removed 430710 rows and 306975 columns (presolve time = 170s) ...
Presolve removed 430710 rows and 306975 columns (presolve time = 175s) ...
Presolve removed 430710 rows and 306975 columns (presolve time = 180s) ...
Presolve removed 430710 rows and 306975 columns (presolve time = 185s) ...
Presolve removed 430710 rows and 306975 columns (presolve time = 190s) ...
Presolve removed 430710 rows and 306975 columns (presolve time = 195s) ...
Presolve removed 430710 rows and 306975 columns (presolve time = 200s) ...
Presolve removed 430710 rows and 306975 columns (presolve time = 205s) ...
Presolve removed 430710 rows and 306975 columns (presolve time = 210s) ...
Presolve removed 430710 rows and 306975 columns (presolve time = 215s) ...
Presolve removed 430710 rows and 306975 columns (presolve time = 220s) ...
Presolve removed 430710 rows and 306975 columns (presolve time = 225s) ...
Presolve removed 430710 rows and 306975 columns (presolve time = 230s) ...
Presolve removed 430710 rows and 306975 columns (presolve time = 235s) ...
Presolve removed 430710 rows and 306975 columns (presolve time = 240s) ...
Presolve removed 430710 rows and 306975 columns (presolve time = 245s) ...
Presolve removed 430710 rows and 306975 columns (presolve time = 250s) ...
Presolve removed 430710 rows and 306975 columns (presolve time = 255s) ...
Presolve removed 430710 rows and 306975 columns (presolve time = 260s) ...
Presolve removed 430710 rows and 306975 columns (presolve time = 265s) ...
Presolve removed 430710 rows and 306975 columns (presolve time = 270s) ...
Presolve removed 430710 rows and 306975 columns (presolve time = 275s) ...
Presolve removed 430710 rows and 306975 columns (presolve time = 280s) ...
Presolve removed 430710 rows and 306975 columns (presolve time = 285s) ...
Presolve removed 430710 rows and 306975 columns (presolve time = 290s) ...
Presolve removed 430710 rows and 306975 columns (presolve time = 295s) ...
Presolve removed 430710 rows and 306975 columns (presolve time = 300s) ...
Presolve removed 430710 rows and 306975 columns (presolve time = 305s) ...
Presolve removed 430710 rows and 306975 columns (presolve time = 310s) ...
Presolve removed 430710 rows and 306975 columns (presolve time = 315s) ...
Presolve removed 430710 rows and 306975 columns (presolve time = 320s) ...
Presolve removed 430710 rows and 306975 columns (presolve time = 325s) ...
Presolve removed 430710 rows and 306975 columns (presolve time = 330s) ...
Presolve removed 430710 rows and 306975 columns (presolve time = 335s) ...
Presolve removed 430710 rows and 306975 columns (presolve time = 340s) ...
Presolve removed 430710 rows and 306975 columns (presolve time = 345s) ...
Presolve removed 430710 rows and 306975 columns (presolve time = 350s) ...
Presolve removed 430710 rows and 306975 columns (presolve time = 355s) ...
Presolve removed 430710 rows and 306975 columns (presolve time = 360s) ...
Presolve removed 430710 rows and 306975 columns (presolve time = 365s) ...
Presolve removed 430710 rows and 306975 columns (presolve time = 370s) ...
Presolve removed 430710 rows and 306975 columns (presolve time = 375s) ...
Presolve removed 430710 rows and 306975 columns (presolve time = 380s) ...
Presolve removed 430710 rows and 306975 columns (presolve time = 385s) ...
Presolve removed 430710 rows and 306975 columns (presolve time = 390s) ...
Presolve removed 430710 rows and 306975 columns (presolve time = 395s) ...
Presolve removed 430710 rows and 306975 columns (presolve time = 400s) ...
Presolve removed 430710 rows and 306975 columns (presolve time = 405s) ...
Presolve removed 430710 rows and 306975 columns (presolve time = 410s) ...
Presolve removed 430710 rows and 306975 columns (presolve time = 415s) ...
Presolve removed 430710 rows and 306975 columns (presolve time = 420s) ...
Presolve removed 430710 rows and 306975 columns (presolve time = 425s) ...
Presolve removed 430710 rows and 306975 columns (presolve time = 430s) ...
Presolve removed 430710 rows and 306975 columns (presolve time = 435s) ...
Presolve removed 430710 rows and 306975 columns (presolve time = 440s) ...
Presolve removed 430710 rows and 306975 columns (presolve time = 445s) ...
Presolve removed 430710 rows and 306975 columns (presolve time = 450s) ...
Presolve removed 430710 rows and 306975 columns (presolve time = 455s) ...
Presolve removed 430710 rows and 306975 columns (presolve time = 460s) ...
Presolve removed 430710 rows and 306975 columns (presolve time = 465s) ...
Presolve removed 430710 rows and 306975 columns (presolve time = 470s) ...
Presolve removed 430710 rows and 306975 columns (presolve time = 475s) ...
Presolve removed 430710 rows and 306975 columns (presolve time = 480s) ...
Presolve removed 430710 rows and 306975 columns (presolve time = 485s) ...
Presolve removed 430710 rows and 306975 columns (presolve time = 490s) ...
Presolve removed 448523 rows and 333270 columns (presolve time = 498s) ...
Presolve removed 463203 rows and 347984 columns (presolve time = 501s) ...
Presolve removed 477812 rows and 347984 columns (presolve time = 506s) ...
Presolve removed 491049 rows and 347984 columns (presolve time = 513s) ...
Presolve removed 491049 rows and 347984 columns (presolve time = 515s) ...
Presolve removed 491049 rows and 347984 columns (presolve time = 525s) ...
Presolve removed 491049 rows and 347984 columns (presolve time = 530s) ...
Presolve removed 491049 rows and 347984 columns (presolve time = 535s) ...
Presolve removed 491049 rows and 347984 columns (presolve time = 540s) ...
Presolve removed 491049 rows and 347984 columns (presolve time = 545s) ...
Presolve removed 493210 rows and 349714 columns (presolve time = 736s) ...
Presolve removed 493210 rows and 349714 columns
Presolve time: 736.35s
Presolved: 3117042 rows, 1770813 columns, 11395748 nonzeros
Variable types: 461652 continuous, 1309161 integer (1309161 binary)
Found heuristic solution: objective 9819.0000000
Optimize a model with 3117042 rows, 1770813 columns and 11395748 nonzeros
Coefficient statistics:
  Matrix range    [4e-02, 8e+02]
  Objective range [1e+00, 7e+02]
  Bounds range    [8e-01, 4e+01]
  RHS range       [1e+00, 8e+03]

Deterministic concurrent LP optimizer: primal simplex, dual simplex, and barrier
Showing barrier log only...

Presolve removed 376 rows and 0 columns (presolve time = 10s) ...
